c nIsolatedPIs 8
c maxPI 56
p cnf 211 466
c gate 57 2 30 0
2 -57 0
30 -57 0
-2 -30 57 0
c gate 58 1 29 0
1 -58 0
29 -58 0
-1 -29 58 0
c gate 59 -57 -58 0
-57 -59 0
-58 -59 0
57 58 59 0
c gate 60 -3 -31 0
-3 -60 0
-31 -60 0
3 31 60 0
c gate 61 -2 -30 0
-2 -61 0
-30 -61 0
2 30 61 0
c gate 62 -60 -61 0
-60 -62 0
-61 -62 0
60 61 62 0
c gate 63 -59 62 0
-59 -63 0
62 -63 0
59 -62 63 0
c gate 64 3 31 0
3 -64 0
31 -64 0
-3 -31 64 0
c gate 65 4 32 0
4 -65 0
32 -65 0
-4 -32 65 0
c gate 66 -64 -65 0
-64 -66 0
-65 -66 0
64 65 66 0
c gate 67 -63 66 0
-63 -67 0
66 -67 0
63 -66 67 0
c gate 68 8 36 0
8 -68 0
36 -68 0
-8 -36 68 0
c gate 69 7 35 0
7 -69 0
35 -69 0
-7 -35 69 0
c gate 70 -68 -69 0
-68 -70 0
-69 -70 0
68 69 70 0
c gate 71 -8 -36 0
-8 -71 0
-36 -71 0
8 36 71 0
c gate 72 -7 -35 0
-7 -72 0
-35 -72 0
7 35 72 0
c gate 73 -71 -72 0
-71 -73 0
-72 -73 0
71 72 73 0
c gate 74 70 73 0
70 -74 0
73 -74 0
-70 -73 74 0
c gate 75 5 33 0
5 -75 0
33 -75 0
-5 -33 75 0
c gate 76 6 34 0
6 -76 0
34 -76 0
-6 -34 76 0
c gate 77 -75 -76 0
-75 -77 0
-76 -77 0
75 76 77 0
c gate 78 -6 -34 0
-6 -78 0
-34 -78 0
6 34 78 0
c gate 79 -5 -33 0
-5 -79 0
-33 -79 0
5 33 79 0
c gate 80 -4 -32 0
-4 -80 0
-32 -80 0
4 32 80 0
c gate 81 -79 -80 0
-79 -81 0
-80 -81 0
79 80 81 0
c gate 82 -78 81 0
-78 -82 0
81 -82 0
78 -81 82 0
c gate 83 77 82 0
77 -83 0
82 -83 0
-77 -82 83 0
c gate 84 74 83 0
74 -84 0
83 -84 0
-74 -83 84 0
c gate 85 -67 84 0
-67 -85 0
84 -85 0
67 -84 85 0
c gate 86 -70 -71 0
-70 -86 0
-71 -86 0
70 71 86 0
c gate 87 -77 -78 0
-77 -87 0
-78 -87 0
77 78 87 0
c gate 88 74 87 0
74 -88 0
87 -88 0
-74 -87 88 0
c gate 89 -86 -88 0
-86 -89 0
-88 -89 0
86 88 89 0
c gate 90 -85 89 0
-85 -90 0
89 -90 0
85 -89 90 0
c gate 91 10 38 0
10 -91 0
38 -91 0
-10 -38 91 0
c gate 92 9 37 0
9 -92 0
37 -92 0
-9 -37 92 0
c gate 93 -91 -92 0
-91 -93 0
-92 -93 0
91 92 93 0
c gate 94 -10 -38 0
-10 -94 0
-38 -94 0
10 38 94 0
c gate 95 -9 -37 0
-9 -95 0
-37 -95 0
9 37 95 0
c gate 96 -94 -95 0
-94 -96 0
-95 -96 0
94 95 96 0
c gate 97 93 96 0
93 -97 0
96 -97 0
-93 -96 97 0
c gate 98 -90 97 0
-90 -98 0
97 -98 0
90 -97 98 0
c gate 99 -93 -94 0
-93 -99 0
-94 -99 0
93 94 99 0
c gate 100 -98 -99 0
-98 -100 0
-99 -100 0
98 99 100 0
c gate 101 12 40 0
12 -101 0
40 -101 0
-12 -40 101 0
c gate 102 11 39 0
11 -102 0
39 -102 0
-11 -39 102 0
c gate 103 -101 -102 0
-101 -103 0
-102 -103 0
101 102 103 0
c gate 104 -12 -40 0
-12 -104 0
-40 -104 0
12 40 104 0
c gate 105 -11 -39 0
-11 -105 0
-39 -105 0
11 39 105 0
c gate 106 -104 -105 0
-104 -106 0
-105 -106 0
104 105 106 0
c gate 107 103 106 0
103 -107 0
106 -107 0
-103 -106 107 0
c gate 108 -100 107 0
-100 -108 0
107 -108 0
100 -107 108 0
c gate 109 -103 -104 0
-103 -109 0
-104 -109 0
103 104 109 0
c gate 110 -108 -109 0
-108 -110 0
-109 -110 0
108 109 110 0
c gate 111 -13 -41 0
-13 -111 0
-41 -111 0
13 41 111 0
c gate 112 -14 -42 0
-14 -112 0
-42 -112 0
14 42 112 0
c gate 113 13 41 0
13 -113 0
41 -113 0
-13 -41 113 0
c gate 114 -112 -113 0
-112 -114 0
-113 -114 0
112 113 114 0
c gate 115 -111 114 0
-111 -115 0
114 -115 0
111 -114 115 0
c gate 116 -110 115 0
-110 -116 0
115 -116 0
110 -115 116 0
c gate 117 14 42 0
14 -117 0
42 -117 0
-14 -42 117 0
c gate 118 16 44 0
16 -118 0
44 -118 0
-16 -44 118 0
c gate 119 -16 -44 0
-16 -119 0
-44 -119 0
16 44 119 0
c gate 120 -118 -119 0
-118 -120 0
-119 -120 0
118 119 120 0
c gate 121 15 43 0
15 -121 0
43 -121 0
-15 -43 121 0
c gate 122 -15 -43 0
-15 -122 0
-43 -122 0
15 43 122 0
c gate 123 -121 -122 0
-121 -123 0
-122 -123 0
121 122 123 0
c gate 124 120 123 0
120 -124 0
123 -124 0
-120 -123 124 0
c gate 125 -117 124 0
-117 -125 0
124 -125 0
117 -124 125 0
c gate 126 116 125 0
116 -126 0
125 -126 0
-116 -125 126 0
c gate 127 -113 -117 0
-113 -127 0
-117 -127 0
113 117 127 0
c gate 128 -112 -127 0
-112 -128 0
-127 -128 0
112 127 128 0
c gate 129 124 128 0
124 -129 0
128 -129 0
-124 -128 129 0
c gate 130 -119 121 0
-119 -130 0
121 -130 0
119 -121 130 0
c gate 131 -118 -130 0
-118 -131 0
-130 -131 0
118 130 131 0
c gate 132 -129 131 0
-129 -132 0
131 -132 0
129 -131 132 0
c gate 133 -126 132 0
-126 -133 0
132 -133 0
126 -132 133 0
c gate 134 18 46 0
18 -134 0
46 -134 0
-18 -46 134 0
c gate 135 -18 -46 0
-18 -135 0
-46 -135 0
18 46 135 0
c gate 136 17 45 0
17 -136 0
45 -136 0
-17 -45 136 0
c gate 137 -135 136 0
-135 -137 0
136 -137 0
135 -136 137 0
c gate 138 -134 -137 0
-134 -138 0
-137 -138 0
134 137 138 0
c gate 139 19 47 0
19 -139 0
47 -139 0
-19 -47 139 0
c gate 140 20 48 0
20 -140 0
48 -140 0
-20 -48 140 0
c gate 141 -139 -140 0
-139 -141 0
-140 -141 0
139 140 141 0
c gate 142 -20 -48 0
-20 -142 0
-48 -142 0
20 48 142 0
c gate 143 -135 -142 0
-135 -143 0
-142 -143 0
135 142 143 0
c gate 144 -19 -47 0
-19 -144 0
-47 -144 0
19 47 144 0
c gate 145 -17 -45 0
-17 -145 0
-45 -145 0
17 45 145 0
c gate 146 -144 -145 0
-144 -146 0
-145 -146 0
144 145 146 0
c gate 147 143 146 0
143 -147 0
146 -147 0
-143 -146 147 0
c gate 148 141 147 0
141 -148 0
147 -148 0
-141 -147 148 0
c gate 149 138 148 0
138 -149 0
148 -149 0
-138 -148 149 0
c gate 150 -133 149 0
-133 -150 0
149 -150 0
133 -149 150 0
c gate 151 -138 -144 0
-138 -151 0
-144 -151 0
138 144 151 0
c gate 152 141 -151 0
141 -152 0
-151 -152 0
-141 151 152 0
c gate 153 -142 -152 0
-142 -153 0
-152 -153 0
142 152 153 0
c gate 154 -150 -153 0
-150 -154 0
-153 -154 0
150 153 154 0
c gate 155 -23 -51 0
-23 -155 0
-51 -155 0
23 51 155 0
c gate 156 -22 -50 0
-22 -156 0
-50 -156 0
22 50 156 0
c gate 157 -155 -156 0
-155 -157 0
-156 -157 0
155 156 157 0
c gate 158 22 50 0
22 -158 0
50 -158 0
-22 -50 158 0
c gate 159 21 49 0
21 -159 0
49 -159 0
-21 -49 159 0
c gate 160 -158 -159 0
-158 -160 0
-159 -160 0
158 159 160 0
c gate 161 157 -160 0
157 -161 0
-160 -161 0
-157 160 161 0
c gate 162 24 52 0
24 -162 0
52 -162 0
-24 -52 162 0
c gate 163 23 51 0
23 -163 0
51 -163 0
-23 -51 163 0
c gate 164 -162 -163 0
-162 -164 0
-163 -164 0
162 163 164 0
c gate 165 -161 164 0
-161 -165 0
164 -165 0
161 -164 165 0
c gate 166 -24 -52 0
-24 -166 0
-52 -166 0
24 52 166 0
c gate 167 -21 -49 0
-21 -167 0
-49 -167 0
21 49 167 0
c gate 168 -166 -167 0
-166 -168 0
-167 -168 0
166 167 168 0
c gate 169 157 168 0
157 -169 0
168 -169 0
-157 -168 169 0
c gate 170 165 169 0
165 -170 0
169 -170 0
-165 -169 170 0
c gate 171 -154 170 0
-154 -171 0
170 -171 0
154 -170 171 0
c gate 172 -28 -56 0
-28 -172 0
-56 -172 0
28 56 172 0
c gate 173 25 53 0
25 -173 0
53 -173 0
-25 -53 173 0
c gate 174 26 54 0
26 -174 0
54 -174 0
-26 -54 174 0
c gate 175 -173 -174 0
-173 -175 0
-174 -175 0
173 174 175 0
c gate 176 -172 175 0
-172 -176 0
175 -176 0
172 -175 176 0
c gate 177 28 56 0
28 -177 0
56 -177 0
-28 -56 177 0
c gate 178 27 55 0
27 -178 0
55 -178 0
-27 -55 178 0
c gate 179 -177 -178 0
-177 -179 0
-178 -179 0
177 178 179 0
c gate 180 -27 -55 0
-27 -180 0
-55 -180 0
27 55 180 0
c gate 181 -166 -180 0
-166 -181 0
-180 -181 0
166 180 181 0
c gate 182 -25 -53 0
-25 -182 0
-53 -182 0
25 53 182 0
c gate 183 -26 -54 0
-26 -183 0
-54 -183 0
26 54 183 0
c gate 184 -182 -183 0
-182 -184 0
-183 -184 0
182 183 184 0
c gate 185 181 184 0
181 -185 0
184 -185 0
-181 -184 185 0
c gate 186 179 185 0
179 -186 0
185 -186 0
-179 -185 186 0
c gate 187 176 186 0
176 -187 0
186 -187 0
-176 -186 187 0
c gate 188 -165 187 0
-165 -188 0
187 -188 0
165 -187 188 0
c gate 189 -150 -188 0
-150 -189 0
-188 -189 0
150 188 189 0
c gate 190 -171 189 0
-171 -190 0
189 -190 0
171 -189 190 0
c gate 191 -94 107 0
-94 -191 0
107 -191 0
94 -107 191 0
c gate 192 110 191 0
110 -192 0
191 -192 0
-110 -191 192 0
c gate 193 89 -99 0
89 -193 0
-99 -193 0
-89 99 193 0
c gate 194 108 193 0
108 -194 0
193 -194 0
-108 -193 194 0
c gate 195 -192 -194 0
-192 -195 0
-194 -195 0
192 194 195 0
c gate 196 -109 -191 0
-109 -196 0
-191 -196 0
109 191 196 0
c gate 197 -111 -196 0
-111 -197 0
-196 -197 0
111 196 197 0
c gate 198 127 -197 0
127 -198 0
-197 -198 0
-127 197 198 0
c gate 199 -112 124 0
-112 -199 0
124 -199 0
112 -124 199 0
c gate 200 -198 199 0
-198 -200 0
199 -200 0
198 -199 200 0
c gate 201 -116 -128 0
-116 -201 0
-128 -201 0
116 128 201 0
c gate 202 -120 123 0
-120 -202 0
123 -202 0
120 -123 202 0
c gate 203 -201 202 0
-201 -203 0
202 -203 0
201 -202 203 0
c gate 204 -200 -203 0
-200 -204 0
-203 -204 0
200 203 204 0
c gate 205 -122 -201 0
-122 -205 0
-201 -205 0
122 201 205 0
c gate 206 -121 -205 0
-121 -206 0
-205 -206 0
121 205 206 0
c gate 207 -204 206 0
-204 -207 0
206 -207 0
204 -206 207 0
c gate 208 -195 -207 0
-195 -208 0
-207 -208 0
195 207 208 0
c gate 209 126 132 0
126 -209 0
132 -209 0
-126 -132 209 0
c gate 210 208 -209 0
208 -210 0
-209 -210 0
-208 209 210 0
c gate 211 -190 210 0
-190 -211 0
210 -211 0
190 -210 211 0
c PO
211 0
